75
42
279
240
266
216
132
340
153
240
150
188
216
150
86
320
343
117
252
135
105
156
246
31
96
333
78
264
231
150
200
232
138
324
175
168
310
245
114
27
90
102
153
164
150
94
185
260
430
96
500
39
28
460
245
364
126
248
48
111
189
308
33
255
240
29
470
216
175
172
96
98
304
140
45
34
208
410
60
48
74
260
176
132
300
156
261
460
105
75
126
155
392
76
54
440
136
357
40
30
329
36
234
129
256
400
39
168
315
175
364
82
217
48
296
189
132
231
250
160
261
276
36
25
420
192
196
304
84
180
170
357
82
240
329
111
104
86
132
200
273
56
46
350
260
210
62
336
190
81
176
68
357
240
145
235
72
100
344
96
392
312
196
405
210
416
287
30
336
148
130
440
165
150
400
29
230
245
50
336
186
294
76
243
405
272
51
82
240
470
360
260
172
96
250
117
28
138
175
468
164
